-1
243
62
892
62
0
0
1
500
1500
500
1500
1
1
1
1
1
1
1
1
1
1
1
1
1
0
0
0
0
0
0
0
0
0
0
0
0
0
0
0
0
0
0
0
0
0
0
0
0
0
0
0
0
0
0
0
0
0
0
0
0
0
0
0
0
0
0
0
0
0
0
0
0
0
0
6
1
94
10
2
15
28
49
74
79
95
18
35
44
75
5
14
17
27
37
41
51
60
63
73
82
89
96
